12 32 9 10
15 2 13 16 18 16 20 16 9 11 15 10 20 18 6 5 2 11 9 11 2 12 17 20 13 7 13 16 20 9 3 2 
2.17 3.96 3.32 0.95 5.48 1.8 1.95 7.68 4.31 7.96 4.08 3.44 2.08 2.64 4.34 6.63 5.73 4.38 1.89 6.86 5.16 5.44 1.47 3.52 5 2.58 1.36 7.44 0.19 7.03 2.27 6.6 
5.54 0.48 3.75 7.07 6.35 2.3 2.32 2.03 0.86 6.99 0.73 5.25 4.95 1.57 7.02 3.34 7.35 0.07 7.87 3.49 4.37 2.8 5.05 2.15 4.87 6.31 4.75 2.05 4.3 3.32 7.66 3.65 
1.95 2.16 1.95 6.58 2.99 0.25 6.71 2.98 0.36 4.89 2.51 6.97 6.28 0.66 5.3 7.18 1.94 1.49 7.89 5.68 0.86 5.82 1.85 4.79 2.76 3.43 4.25 0.44 2.05 1.16 3.84 4.12 
3.43 7.77 2.14 6.27 7.31 7.77 4.11 4.27 3 7.54 5.01 6.35 3.27 1.47 5.45 0.2 3.63 4.87 1.73 5.32 4.82 1.35 7.63 6.98 3.45 1.32 4.61 0.41 1.58 1.87 0.54 0.06 
1.43 0.51 5.97 1.83 0.7 4.28 0.5 7.62 1.39 3.12 4.95 7.69 5.9 0.18 0.66 6.41 7.93 2.02 7.1 3.68 2.5 2.13 2.52 7.89 7.75 5.51 6.28 5.13 0.24 0.63 3.39 3.58 
1.37 2.67 4.93 1.94 0.93 4.55 4.4 1.66 3.13 2.08 1.8 0.39 3.11 3.54 1.23 6.11 2.06 7.33 2.37 3.06 3.46 0.51 7.21 6.3 3.41 5.66 6.63 5.58 3.6 5.78 3.41 0.11 
6.9 4.54 5.26 2.09 4.23 5.91 5.83 3.85 0.79 1.03 7.07 6.91 0.87 3.57 3.05 4.97 6.91 7.52 0.42 5.25 3.99 3.68 2.8 6.51 1.74 2.07 7.98 1.1 3.23 2.38 7.95 2.91 
5.8 1.16 4.11 4.94 6.84 1.44 0.59 7.39 4.02 4 4.21 7.14 0.74 1.66 6.42 6.46 1.82 3 6.44 7.39 4.07 5.38 4.97 7.73 4.18 2.9 4.03 3.03 5.08 4.8 0.37 4.55 
0.72 2.42 7.17 2.73 6.72 6.47 3.1 4.18 2.36 1.53 4.79 4.89 0.79 1.18 7.48 1.69 4.78 1.4 2.82 2.1 2.12 6.68 6.03 7.36 3.17 1.13 0.48 2.12 0.08 7.34 7.91 7.48 
4 4 4 4 4 4 4 4 4 4 4 4 4 4 4 4 4 4 4 4 4 4 4 4 4 4 4 4 4 4 4 4 
3.68 3.18 1.78 6.17 0.56 4.34 4.51 4.11 2.96 3.61 1.77 1.05 1.05 1.77 0.05 4.07 7.23 4.51 4.43 2.07 7.21 7.55 4.04 0.96 5.44 7.61 0.54 5.73 1.96 2.77 5.06 1.07 
4.7 4.43 4.45 7.73 0.49 0.91 4.55 4.05 4.89 2.36 6.44 7.19 4.88 1.71 2.86 2.49 6.88 0.22 3.86 6.68 6 6.64 5.11 2.23 0.92 3.81 4.67 0.97 7.29 0.11 2.46 5.44 
1 1 1 1 1 1 1 1 1 1 1 1 1 1 1 1 1 1 1 1 1 1 1 1 1 1 1 1 1 1 1 1 
1 1 1 1 1 1 1 1 1 1 1 1 1 1 1 1 1 1 1 1 1 1 1 1 1 1 1 1 1 1 1 1 
1 1 1 1 1 1 1 1 1 1 1 1 1 1 1 1 1 1 1 1 1 1 1 1 1 1 1 1 1 1 1 1 
1 1 1 1 1 1 1 1 1 1 1 1 1 1 1 1 1 1 1 1 1 1 1 1 1 1 1 1 1 1 1 1 
1 1 1 1 1 1 1 1 1 1 1 1 1 1 1 1 1 1 1 1 1 1 1 1 1 1 1 1 1 1 1 1 
1 1 1 1 1 1 1 1 1 1 1 1 1 1 1 1 1 1 1 1 1 1 1 1 1 1 1 1 1 1 1 1 
1 1 1 1 1 1 1 1 1 1 1 1 1 1 1 1 1 1 1 1 1 1 1 1 1 1 1 1 1 1 1 1 
1 1 1 1 1 1 1 1 1 1 1 1 1 1 1 1 1 1 1 1 1 1 1 1 1 1 1 1 1 1 1 1 
1 1 1 1 1 1 1 1 1 1 1 1 1 1 1 1 1 1 1 1 1 1 1 1 1 1 1 1 1 1 1 1 
1 1 1 1 1 1 1 1 1 1 1 1 1 1 1 1 1 1 1 1 1 1 1 1 1 1 1 1 1 1 1 1 
1 1 1 1 1 1 1 1 1 1 1 1 1 1 1 1 1 1 1 1 1 1 1 1 1 1 1 1 1 1 1 1 
1 1 1 1 1 1 1 1 1 1 1 1 1 1 1 1 1 1 1 1 1 1 1 1 1 1 1 1 1 1 1 1 
0.01 0.01 0.01 0.01 0.01 0.01 0.01 0.01 0.01 0.01 0.01 0.01 0.01 0.01 0.01 0.01 0.01 0.01 0.01 0.01 0.01 0.01 0.01 0.01 0.01 0.01 0.01 0.01 0.01 0.01 0.01 0.01 
0.02 0.02 0.02 0.02 0.02 0.02 0.02 0.02 0.02 0.02 0.02 0.02 0.02 0.02 0.02 0.02 0.02 0.02 0.02 0.02 0.02 0.02 0.02 0.02 0.02 0.02 0.02 0.02 0.02 0.02 0.02 0.02 
0.03 0.03 0.03 0.03 0.03 0.03 0.03 0.03 0.03 0.03 0.03 0.03 0.03 0.03 0.03 0.03 0.03 0.03 0.03 0.03 0.03 0.03 0.03 0.03 0.03 0.03 0.03 0.03 0.03 0.03 0.03 0.03 
0.04 0.04 0.04 0.04 0.04 0.04 0.04 0.04 0.04 0.04 0.04 0.04 0.04 0.04 0.04 0.04 0.04 0.04 0.04 0.04 0.04 0.04 0.04 0.04 0.04 0.04 0.04 0.04 0.04 0.04 0.04 0.04 
0.05 0.05 0.05 0.05 0.05 0.05 0.05 0.05 0.05 0.05 0.05 0.05 0.05 0.05 0.05 0.05 0.05 0.05 0.05 0.05 0.05 0.05 0.05 0.05 0.05 0.05 0.05 0.05 0.05 0.05 0.05 0.05 
0.06 0.06 0.06 0.06 0.06 0.06 0.06 0.06 0.06 0.06 0.06 0.06 0.06 0.06 0.06 0.06 0.06 0.06 0.06 0.06 0.06 0.06 0.06 0.06 0.06 0.06 0.06 0.06 0.06 0.06 0.06 0.06 
0.07 0.07 0.07 0.07 0.07 0.07 0.07 0.07 0.07 0.07 0.07 0.07 0.07 0.07 0.07 0.07 0.07 0.07 0.07 0.07 0.07 0.07 0.07 0.07 0.07 0.07 0.07 0.07 0.07 0.07 0.07 0.07 
0.08 0.08 0.08 0.08 0.08 0.08 0.08 0.08 0.08 0.08 0.08 0.08 0.08 0.08 0.08 0.08 0.08 0.08 0.08 0.08 0.08 0.08 0.08 0.08 0.08 0.08 0.08 0.08 0.08 0.08 0.08 0.08 
0.09 0.09 0.09 0.09 0.09 0.09 0.09 0.09 0.09 0.09 0.09 0.09 0.09 0.09 0.09 0.09 0.09 0.09 0.09 0.09 0.09 0.09 0.09 0.09 0.09 0.09 0.09 0.09 0.09 0.09 0.09 0.09 
0.1 0.1 0.1 0.1 0.1 0.1 0.1 0.1 0.1 0.1 0.1 0.1 0.1 0.1 0.1 0.1 0.1 0.1 0.1 0.1 0.1 0.1 0.1 0.1 0.1 0.1 0.1 0.1 0.1 0.1 0.1 0.1 
0.5 0.5 0.5 0.5 0.5 0.5 0.5 0.5 0.5 0.5 0.5 0.5 0.5 0.5 0.5 0.5 0.5 0.5 0.5 0.5 0.5 0.5 0.5 0.5 0.5 0.5 0.5 0.5 0.5 0.5 0.5 0.5 
1 1 1 1 1 1 1 1 1 1 1 1 1 1 1 1 1 1 1 1 1 1 1 1 1 1 1 1 1 1 1 1 
